SYSTEM = RW_2
PREC = Normal
EDIFF = 1e-5
EDIFFG = 1e-3
NELM = 120
IBRION = 2
###SYMPREC=1e-4
ISIF = 2
KSPACING=0.8
NSW = 200
ISMEAR = 0 ; SIGMA = 0.05
POTIM = 0.100
ISTART = 0
LWAVE = FALSE
LCHARG = FALSE


