SYSTEM=BBO
ISTART=0
ICHARG=2

ENCUT=550
EDIFF=1E-8
#ALGO=Normal
IALGO=38
ISMEAR=0

IBRION=8
NSW=1
SIGMA=0.1

ADDGRID=.TRUE.
LWAVE=F
LCHARG=F
PREC=Accuratue
LREAL= Auto

