from_pyxtal
1.00000
    4.619639827485    0.000000000000    0.000000000000
   -0.000000000000    4.619639827485    0.000000000000
    0.000000000000   -0.000000000000    4.619639827485
Zn Mg O
3 1 4
Direct
    0.041153007479    0.564092011741    0.548906032676
    0.564274961166    0.100102321022    0.576384049274
    0.719222277149    0.841418467848    0.260522681242
    0.374438956431    0.583154123157    0.444981423235
    0.287541772872    0.309486819693    0.294958855977
    0.771225054401    0.782037099416    0.271223259440
    0.784018430501    0.298305504856    0.790082942305
    0.252959396594    0.759284057063    0.757517426584
