Zn2 O2                                  
  0.997000000000000     
     3.2855561498640751    0.0000000014166077    0.0000000000000000
    -1.6427792103781382    2.8453744357756934    0.0000000000000000
     0.0000000000000000    0.0000000000000000    5.3036394486244092
   Zn   O 
     2     2
Direct
  0.6666669849999991  0.3333329860000021  0.5006379780593875
  0.3333329860000021  0.6666669849999991  0.0006379730593906
  0.6666669849999991  0.3333329860000021  0.8796720209406104
  0.3333329860000021  0.6666669849999991  0.3796720209406104
 
  0.00000000E+00  0.00000000E+00  0.00000000E+00
  0.00000000E+00  0.00000000E+00  0.00000000E+00
  0.00000000E+00  0.00000000E+00  0.00000000E+00
  0.00000000E+00  0.00000000E+00  0.00000000E+00
