chushi:
  SYSTEM = 11O
  ISTART = 1
  ICHARG = 1
  ENCUT = 700
  PREC = Accurate
  LREAL = .False.
  ALGO = Normal
  NCORE = 12
  NPAR = 4
  #ISYM = 0
  #LORBIT = 11


lizi:
  IBRION = 2
  POTIM = 0.2
  ISIF = 2
  NSW = 0
  EDIFFG = -0.001

dianzi:
  #ISPIN = 2
  #MAGMOM = 16*0 8*0 8*1
  NELM = 100
  NELMIN = 5
  LASPH = TRUE
  ADDGRID = TRUE
  LCHARG = .FALSE.
  LWAVE = .FALSE.
  ISMEAR = 0
  SIGMA = 0.05
  EDIFF = 1E-6

