Supercell
 1.0000000000000000
     7.3222820000000004    0.0000000000000000    0.0000000000000000
    -1.8892123326871386    7.9781555416352274    0.0000000000000000
    -1.4315303504759245   -3.0482481683827776    8.7743785592835071
 Mg  O   Zn 
   8  32  24
Direct
  0.8702396810357121  0.7592112186420598  0.8867234999999999
  0.8702396810357123  0.2592112186420599  0.3867234999999999
  1.3702396810357123  0.7592112186420598  0.8867234999999999
  1.3702396810357123  0.2592112186420599  0.3867234999999999
  0.8702396810357121  0.7592112186420599  0.3867234999999999
  1.3702396810357123  0.7592112186420599  0.3867234999999999
  0.8702396810357123  0.2592112186420599  0.8867234999999999
  1.3702396810357123  0.2592112186420599  0.8867234999999999
  1.1527803348947565  0.9031360631135057  0.8505340000000000
  0.6230464056576281  0.6956453817512793  0.5784270000000000
  1.1230464056576281  0.6956453817512793  0.5784270000000000
  1.6657907609888127  0.3449733411376729  0.4791265000000000
  1.6527803348947567  0.4031360631135057  0.3505340000000000
  1.1230464056576284  0.1956453817512793  0.0784270000000000
  1.0458599054185267  0.3145318991498569  0.2215785000000000
  0.5458599054185267  0.8145318991498570  0.7215785000000000
  1.1657907609888130  0.8449733411376729  0.9791264999999999
  1.1230464056576284  0.1956453817512793  0.5784270000000000
  1.0458599054185267  0.3145318991498569  0.7215785000000000
  1.6657907609888127  0.8449733411376729  0.4791265000000000
  1.6527803348947565  0.9031360631135057  0.3505340000000000
  1.1230464056576281  0.6956453817512793  0.0784270000000000
  1.0458599054185267  0.8145318991498569  0.2215785000000000
  1.6657907609888127  0.8449733411376729  0.9791264999999999
  1.6527803348947565  0.9031360631135057  0.8505340000000000
  1.6657907609888127  0.3449733411376729  0.9791264999999999
  1.6527803348947567  0.4031360631135057  0.8505340000000000
  1.0458599054185267  0.8145318991498570  0.7215785000000000
  1.1527803348947567  0.4031360631135057  0.8505340000000000
  1.1657907609888130  0.3449733411376729  0.9791264999999999
  0.5458599054185266  0.8145318991498569  0.2215785000000000
  0.6230464056576281  0.6956453817512793  0.0784270000000000
  1.1657907609888130  0.3449733411376729  0.4791265000000000
  0.6230464056576281  0.1956453817512793  0.5784270000000000
  1.1527803348947565  0.9031360631135057  0.3505340000000000
  1.1657907609888130  0.8449733411376729  0.4791265000000000
  0.5458599054185267  0.3145318991498569  0.7215785000000000
  1.1527803348947567  0.4031360631135057  0.3505340000000000
  0.6230464056576281  0.1956453817512793  0.0784270000000000
  0.5458599054185266  0.3145318991498569  0.2215785000000000
  0.7623041030903216 -0.0426903338368525  0.9431830000000000
  0.1107345169586439  0.0353795271685597  0.5526749999999999
  0.6107345169586440  0.5353795271685597  0.5526749999999999
  1.2623041030903215  0.4573096661631476  0.9431830000000000
  1.0416012156342771  0.6171815927234382  0.8800884999999999
  0.5416012156342769  0.1171815927234382  0.3800884999999999
  0.7623041030903216 -0.0426903338368525  0.4431829999999999
  1.0416012156342771  0.6171815927234382  0.3800884999999999
  1.2623041030903215  0.4573096661631476  0.4431829999999999
  0.7623041030903217  0.4573096661631476  0.9431830000000000
  0.5416012156342769  0.1171815927234382  0.8800884999999999
  0.5416012156342769  0.6171815927234382  0.8800884999999999
  1.0416012156342769  0.1171815927234382  0.8800884999999999
  1.2623041030903217 -0.0426903338368525  0.9431830000000000
  0.6107345169586440  0.0353795271685597  0.5526749999999999
  0.1107345169586439  0.5353795271685597  0.0526750000000000
  0.7623041030903216  0.4573096661631476  0.4431829999999999
  0.5416012156342769  0.6171815927234382  0.3800884999999999
  1.0416012156342769  0.1171815927234382  0.3800884999999999
  1.2623041030903217 -0.0426903338368525  0.4431829999999999
  0.6107345169586440  0.0353795271685597  0.0526750000000000
  0.1107345169586439  0.5353795271685597  0.5526749999999999
  0.6107345169586439  0.5353795271685597  0.0526750000000000
  0.1107345169586439  0.0353795271685597  0.0526750000000000
